LengthSchedulingHorizon=3097;
nAttributes=5;
SetupCosts=[[0, 0, 0, 0, 0], [5, 5, 5, 5, 5], [5, 5, 5, 5, 5], [5, 5, 5, 5, 5], [5, 5, 5, 5, 5], [5, 5, 5, 5, 5]];
SetupTimes=[[0, 0, 0, 0, 0], [11, 11, 11, 11, 11], [11, 11, 11, 11, 11], [11, 11, 11, 11, 11], [11, 11, 11, 11, 11], [11, 11, 11, 11, 11]];
nMachines=5;
MinCap=[0, 0, 0, 0, 0];
MaxCap=[76, 49, 57, 79, 88];

initState=[5, 5, 5, 1, 2];
nShifts=4;
ShiftStartTimes = [[0, 1476, 1539, 2821], [440, 1956, 2196, 2515], [0, 1650, 2538, 2618], [0, 0, 2172, 2353], [0, 0, 117, 804]];
ShiftEndTimes = [[0, 1510, 1905, 2912], [1300, 2143, 2326, 2913], [0, 2436, 2611, 2778], [0, 0, 2232, 2835], [0, 0, 623, 1387]];
nJobs=10;
EligibleMachines = [{1, 3}, {1, 5}, {1, 2, 5}, {2, 3}, {3, 4}, {2}, {2, 3, 4, 5}, {1, 2, 3, 4, 5}, {1, 2, 3, 4, 5}, {1, 2, 3, 4}];
EarliestStart=[11, 51, 9, 45, 21, 53, 34, 16, 22, 38];
LatestEnd=[46, 145, 162, 138, 114, 82, 157, 99, 187, 140];
MinTime=[33, 67, 91, 89, 51, 23, 72, 63, 95, 67];
MaxTime=[100, 100, 100, 100, 100, 100, 100, 100, 100, 100];
JobSize=[8, 20, 2, 19, 18, 13, 13, 14, 11, 20];
Attribute=[3, 4, 2, 4, 4, 2, 3, 3, 2, 1];

upper_bound_integer_objective=16500;
mult_factor_total_runtime=10;
mult_factor_finished_toolate=660;
mult_factor_total_setuptimes=0;
mult_factor_total_setupcosts=66;
running_time_bound=651;
min_duration=23;
max_duration=95;
max_setup_time=11;
max_setup_cost=5;
